43
145
124
138
191
85
157
105
114
57
202
181
164
57
23
243
140
245
12
56
140
231
15
127
34
243
226
9
30
36
52
36
28
4
144
244
243
48
159
98
115
54
27
21
163
90
66
20
79
222
138
180
3
249
52
15
117
228
212
240
107
49
110
89
108
97
56
59
143
113
166
12
177
232
90
145
161
144
51
42
231
118
27
98
98
218
202
241
231
44
192
52
92
128
165
78
76
74
33
156
